0 4842
2401 4752
4802 4674
7203 4599
9604 4552
12005 4477
14406 4427
16807 4370
19208 4343
21609 4324
24010 4292
26411 4275
28812 4263
31213 4236
33614 4203
36015 4181
38416 4167
40817 4140
43218 4120
45619 4110
48020 4095
50421 4085
52822 4066
55223 4059
57624 4058
60025 4054
62426 4050
